p cnf 14 64
-5 -7 -10 0
-5 -9 -13 0
-1 -3 5 0
8 -9 -12 0
3 -8 14 0
-2 3 -12 0
-3 -6 8 0
2 9 -11 0
-5 -10 12 0
-3 7 -12 0
-4 8 11 0
-4 11 -13 0
2 -3 -12 0
3 -4 13 0
-3 7 -13 0
3 8 10 0
-5 -9 11 0
-2 5 -9 0
-3 -11 14 0
7 -9 -10 0
-2 5 14 0
-11 -12 13 0
-3 -9 -11 0
-1 9 12 0
3 6 12 0
-3 -6 -11 0
5 -11 -14 0
4 -7 11 0
-7 8 12 0
-8 9 -10 0
5 -8 9 0
2 -3 4 0
1 2 -9 0
-6 8 -13 0
2 -12 13 0
8 -11 -14 0
2 3 -12 0
-7 10 -11 0
-2 8 -12 0
1 -3 -12 0
-1 -7 -14 0
-4 8 -10 0
4 11 -13 0
-7 11 -13 0
-3 5 -8 0
5 -10 -13 0
3 -8 -12 0
6 9 -14 0
9 -11 14 0
-4 -6 13 0
3 -9 13 0
9 12 -13 0
9 -10 -14 0
2 5 -6 0
6 -12 -14 0
5 -9 -10 0
1 6 13 0
-3 -7 14 0
-4 5 -13 0
-5 -9 -11 0
-3 9 14 0
5 -10 -12 0
-1 -2 -7 0
1 -4 -12 0
